p wcnf 191 286 287 
1 139 -93 0 
1 1 -113 0 
1 -190 -184 0 
1 -11 -50 0 
1 -44 54 0 
1 -141 -50 0 
1 -3 -110 0 
1 -25 -99 0 
1 27 100 0 
1 -150 46 0 
1 37 185 0 
1 -182 -48 0 
1 -49 173 0 
1 183 117 0 
1 -43 -99 0 
1 -113 4 0 
1 66 107 0 
1 28 -32 0 
1 160 -167 0 
1 -10 165 0 
1 -65 -93 0 
1 -149 110 0 
1 -69 -178 0 
1 33 113 0 
1 -24 15 0 
1 -154 -90 0 
1 30 -31 0 
1 58 149 0 
1 -186 -74 0 
1 121 39 0 
1 -139 -82 0 
1 60 -33 0 
1 185 191 0 
1 130 -119 0 
1 -39 -176 0 
1 -51 127 0 
1 78 -72 0 
1 -123 -126 0 
1 -85 139 0 
1 -15 128 0 
1 -86 43 0 
1 -56 -35 0 
1 -167 -64 0 
1 -104 -165 0 
1 87 119 0 
1 147 -150 0 
1 -111 79 0 
1 36 108 0 
1 -104 -16 0 
1 -17 -119 0 
1 165 -162 0 
1 39 -109 0 
1 9 -142 0 
1 53 51 0 
1 149 -191 0 
1 -173 132 0 
1 124 121 0 
1 -99 63 0 
1 -76 122 0 
1 97 3 0 
1 -28 24 0 
1 -123 -151 0 
1 -180 -96 0 
1 -51 -135 0 
1 39 163 0 
1 132 114 0 
1 113 45 0 
1 73 185 0 
1 170 -132 0 
1 111 -135 0 
1 -73 -131 0 
1 109 122 0 
1 -96 184 0 
1 -13 146 0 
1 14 177 0 
1 124 181 0 
1 155 13 0 
1 43 -109 0 
1 -11 62 0 
1 46 -144 0 
1 -91 -152 0 
1 99 -60 0 
1 -90 -42 0 
1 169 -33 0 
1 172 -156 0 
1 178 -188 0 
1 143 -24 0 
1 58 76 0 
1 -116 -31 0 
1 190 -75 0 
1 50 -87 0 
1 -13 67 0 
1 -62 105 0 
1 18 -52 0 
1 -169 114 0 
1 -178 102 0 
1 106 -34 0 
1 -15 168 0 
1 73 -17 0 
1 -94 101 0 
1 54 166 0 
1 144 -63 0 
1 84 57 0 
1 -53 168 0 
1 176 58 0 
1 -184 46 0 
1 -86 89 0 
1 100 -150 0 
1 27 -123 0 
1 138 -100 0 
1 22 -15 0 
1 -174 -26 0 
1 133 -98 0 
1 -53 -16 0 
1 91 169 0 
1 181 -45 0 
1 -38 -5 0 
1 -64 190 0 
1 -185 -7 0 
1 -16 -135 0 
1 24 -104 0 
1 -15 -85 0 
1 -103 167 0 
1 -25 -103 0 
1 17 168 0 
1 -186 151 0 
1 188 172 0 
1 -33 -107 0 
1 -13 150 0 
1 165 171 0 
1 107 23 0 
1 -50 -179 0 
1 170 -112 0 
1 146 72 0 
1 88 48 0 
1 -97 133 0 
1 -5 81 0 
1 -178 -53 0 
1 43 107 0 
1 -27 160 0 
1 128 168 0 
1 -166 27 0 
1 -119 -105 0 
1 -10 -153 0 
1 9 -50 0 
1 66 34 0 
1 -150 121 0 
1 -72 -120 0 
1 184 43 0 
1 -144 -115 0 
1 71 -49 0 
1 23 186 0 
1 121 -120 0 
1 149 144 0 
1 179 -2 0 
1 148 170 0 
1 -173 -139 0 
1 -179 18 0 
1 10 -27 0 
1 50 -36 0 
1 -190 120 0 
1 -9 -129 0 
1 -169 -77 0 
1 -162 -85 0 
1 -158 -140 0 
1 127 -173 0 
1 -131 -72 0 
1 -8 41 0 
1 -56 -177 0 
1 -83 -97 0 
1 -191 -110 0 
1 120 -188 0 
1 120 101 0 
1 107 177 0 
1 -149 36 0 
1 -10 -58 0 
1 -123 61 0 
1 -105 85 0 
1 130 83 0 
1 5 -79 0 
1 -37 20 0 
1 -60 146 0 
1 116 -58 0 
1 161 71 0 
1 155 170 0 
1 -122 -36 0 
1 136 177 0 
1 -181 -24 0 
1 -175 -145 0 
1 63 68 0 
1 -100 74 0 
1 93 6 0 
1 184 158 0 
1 -61 -151 0 
1 -42 -151 0 
1 -46 61 0 
1 60 188 0 
1 -64 -166 0 
1 -82 88 0 
1 105 -97 0 
1 -126 113 0 
1 145 -72 0 
1 -40 -139 0 
1 66 -43 0 
1 133 -57 0 
1 -4 156 0 
1 -133 65 0 
1 -89 25 0 
1 85 37 0 
1 -25 -6 0 
1 22 -33 0 
1 -100 35 0 
1 -135 185 0 
1 3 -51 0 
1 113 -21 0 
1 -142 163 0 
1 -125 -63 0 
1 -144 -155 0 
1 124 45 0 
1 -128 42 0 
1 148 50 0 
1 172 -49 0 
1 -34 -142 0 
1 -41 -83 0 
1 182 133 0 
1 167 58 0 
1 56 133 0 
1 -77 -187 0 
1 -60 188 0 
1 190 -97 0 
1 190 -141 0 
1 35 -191 0 
1 12 109 0 
1 150 -189 0 
1 83 152 0 
1 -17 114 0 
1 9 141 0 
1 41 -182 0 
1 -180 -86 0 
1 160 38 0 
1 -46 -184 0 
1 184 166 0 
1 41 110 0 
1 -61 46 0 
1 172 -142 0 
1 -41 17 0 
1 -22 -101 0 
1 142 -8 0 
1 123 148 0 
1 -48 12 0 
1 167 10 0 
1 -188 178 0 
1 -132 -74 0 
1 23 180 0 
1 12 78 0 
1 -58 75 0 
1 35 -176 0 
1 -118 152 0 
1 -9 89 0 
1 37 -17 0 
1 -96 -186 0 
1 136 112 0 
1 24 -152 0 
1 126 74 0 
1 41 -123 0 
1 50 66 0 
1 63 49 0 
1 -23 131 0 
1 83 -128 0 
1 -57 168 0 
1 191 -91 0 
1 -117 -187 0 
1 70 39 0 
1 -180 14 0 
1 113 -89 0 
1 -35 -41 0 
1 -98 -96 0 
1 -37 131 0 
1 139 -92 0 
1 -105 180 0 
1 -79 187 0 
1 -140 103 0 
1 -102 44 0 
1 -72 -140 0 
1 -83 43 0 
1 143 176 0 
